; benchmark generated from python API
(set-info :status unknown)
(declare-fun x_days () Int)
(declare-fun y_days () Int)
(assert
 (>= x_days (- 36525)))
(assert
 (<= x_days 36523))
(assert
 (>= y_days (- 36525)))
(assert
 (<= y_days 36523))
(assert
 (>= x_days 8492))
(assert
 (let ((?x876 (+ x_days 730179)))
 (let ((?x1087 (mod ?x876 146097)))
 (let ((?x737 (div ?x1087 36524)))
 (let ((?x829 (ite (<= 4 ?x737) 3 ?x737)))
 (let ((?x469 (- ?x1087 (* ?x829 36524))))
 (let ((?x867 (mod ?x469 1461)))
 (let ((?x632 (div ?x867 365)))
 (let ((?x970 (ite (<= 4 ?x632) 3 ?x632)))
 (let ((?x443 (+ (+ (* (div ?x876 146097) 400) (* ?x829 100)) (* (div ?x469 1461) 4))))
 (let ((?x1000 (+ (+ ?x443 ?x970) 1)))
 (let (($x799 (or (and (= (mod ?x1000 4) 0) (and (distinct (mod ?x1000 100) 0) true)) (= (mod ?x1000 400) 0))))
 (let ((?x959 (- ?x867 (* ?x970 365))))
 (let ((?x608 (ite $x799 31 31)))
 (let (($x426 (>= ?x959 ?x608)))
 (let ((?x1060 (ite $x426 (+ (- ?x959 ?x608) 1) (+ (- ?x959 (ite $x799 0 0)) 1))))
 (let ((?x830 (ite $x799 60 59)))
 (let (($x3451 (>= ?x959 ?x830)))
 (let ((?x720 (ite $x799 91 90)))
 (let (($x3157 (>= ?x959 ?x720)))
 (let ((?x797 (ite $x3157 (+ (- ?x959 ?x720) 1) (ite $x3451 (+ (- ?x959 ?x830) 1) ?x1060))))
 (let ((?x583 (ite $x799 121 120)))
 (let (($x566 (>= ?x959 ?x583)))
 (let ((?x712 (ite $x799 152 151)))
 (let (($x3024 (>= ?x959 ?x712)))
 (let ((?x573 (ite $x3024 (+ (- ?x959 ?x712) 1) (ite $x566 (+ (- ?x959 ?x583) 1) ?x797))))
 (let ((?x756 (ite $x799 182 181)))
 (let (($x607 (>= ?x959 ?x756)))
 (let ((?x497 (ite $x799 213 212)))
 (let (($x427 (>= ?x959 ?x497)))
 (let ((?x768 (ite $x427 (+ (- ?x959 ?x497) 1) (ite $x607 (+ (- ?x959 ?x756) 1) ?x573))))
 (let ((?x791 (ite $x799 244 243)))
 (let (($x1100 (>= ?x959 ?x791)))
 (let ((?x837 (ite $x799 274 273)))
 (let (($x744 (>= ?x959 ?x837)))
 (let ((?x516 (ite $x744 (+ (- ?x959 ?x837) 1) (ite $x1100 (+ (- ?x959 ?x791) 1) ?x768))))
 (let ((?x628 (ite $x799 305 304)))
 (let (($x2349 (>= ?x959 ?x628)))
 (let ((?x898 (ite $x799 335 334)))
 (let (($x2625 (>= ?x959 ?x898)))
 (let ((?x485 (ite $x2625 (+ (- ?x959 ?x898) 1) (ite $x2349 (+ (- ?x959 ?x628) 1) ?x516))))
 (let ((?x926 (ite $x566 5 (ite $x3157 4 (ite $x3451 3 (ite $x426 2 1))))))
 (let ((?x633 (ite $x1100 9 (ite $x427 8 (ite $x607 7 (ite $x3024 6 ?x926))))))
 (let ((?x1871 (+ (ite $x2625 12 (ite $x2349 11 (ite $x744 10 ?x633))) (+ (* 0 12) 1))))
 (let ((?x721 (- ?x1871 1)))
 (let ((?x906 (+ (mod ?x721 12) 1)))
 (let ((?x873 (ite (or (= ?x906 4) (= ?x906 6) (= ?x906 9) (= ?x906 11)) 30 31)))
 (let (($x802 (and (= (mod (+ ?x1000 (+ 0 (div ?x721 12))) 4) 0) (and (distinct (mod (+ ?x1000 (+ 0 (div ?x721 12))) 100) 0) true))))
 (let (($x451 (or $x802 (= (mod (+ ?x1000 (+ 0 (div ?x721 12))) 400) 0))))
 (let ((?x776 (ite (= ?x906 2) (ite $x451 29 28) ?x873)))
 (let ((?x728 (ite (> 1 ?x485) 1 (ite (> ?x485 ?x776) ?x776 ?x485))))
 (let ((?x577 (ite (> 1 ?x728) 1 (ite (> ?x728 ?x776) ?x776 ?x728))))
 (let ((?x1181 (ite (= 2 ?x906) (ite $x451 31 31) (ite (= 1 ?x906) (ite $x451 0 0) 0))))
 (let ((?x512 (ite (= 4 ?x906) (ite $x451 91 90) (ite (= 3 ?x906) (ite $x451 60 59) ?x1181))))
 (let ((?x1565 (ite (= 6 ?x906) (ite $x451 152 151) (ite (= 5 ?x906) (ite $x451 121 120) ?x512))))
 (let ((?x3494 (ite (= 8 ?x906) (ite $x451 213 212) (ite (= 7 ?x906) (ite $x451 182 181) ?x1565))))
 (let ((?x1118 (ite (= 10 ?x906) (ite $x451 274 273) (ite (= 9 ?x906) (ite $x451 244 243) ?x3494))))
 (let ((?x760 (ite (= 12 ?x906) (ite $x451 335 334) (ite (= 11 ?x906) (ite $x451 305 304) ?x1118))))
 (let ((?x835 (+ (* 365 (- (+ ?x1000 (+ 0 (div ?x721 12))) 1)) (div (- (+ ?x1000 (+ 0 (div ?x721 12))) 1) 4))))
 (let ((?x864 (+ (- ?x835 (div (- (+ ?x1000 (+ 0 (div ?x721 12))) 1) 100)) (div (- (+ ?x1000 (+ 0 (div ?x721 12))) 1) 400))))
 (let ((?x2951 (+ (+ (- (+ (+ ?x864 ?x760) (- ?x577 1)) 730179) 0) 730179)))
 (let ((?x418 (mod ?x2951 146097)))
 (let ((?x747 (div ?x418 36524)))
 (let ((?x1017 (ite (<= 4 ?x747) 3 ?x747)))
 (let ((?x3022 (- ?x418 (* ?x1017 36524))))
 (let ((?x2915 (mod ?x3022 1461)))
 (let ((?x486 (div ?x2915 365)))
 (let ((?x517 (ite (<= 4 ?x486) 3 ?x486)))
 (let ((?x1028 (+ (+ (* (div ?x2951 146097) 400) (* ?x1017 100)) (* (div ?x3022 1461) 4))))
 (let ((?x490 (+ (+ ?x1028 ?x517) 1)))
 (let (($x665 (or (and (= (mod ?x490 4) 0) (and (distinct (mod ?x490 100) 0) true)) (= (mod ?x490 400) 0))))
 (let ((?x2663 (- ?x2915 (* ?x517 365))))
 (let ((?x697 (ite $x665 31 31)))
 (let (($x806 (>= ?x2663 ?x697)))
 (let ((?x503 (ite $x806 (+ (- ?x2663 ?x697) 1) (+ (- ?x2663 (ite $x665 0 0)) 1))))
 (let ((?x643 (ite $x665 60 59)))
 (let (($x2987 (>= ?x2663 ?x643)))
 (let ((?x3057 (ite $x665 91 90)))
 (let (($x2076 (>= ?x2663 ?x3057)))
 (let ((?x986 (ite $x2076 (+ (- ?x2663 ?x3057) 1) (ite $x2987 (+ (- ?x2663 ?x643) 1) ?x503))))
 (let ((?x489 (ite $x665 121 120)))
 (let (($x1019 (>= ?x2663 ?x489)))
 (let ((?x954 (ite $x665 152 151)))
 (let (($x3190 (>= ?x2663 ?x954)))
 (let ((?x1122 (ite $x3190 (+ (- ?x2663 ?x954) 1) (ite $x1019 (+ (- ?x2663 ?x489) 1) ?x986))))
 (let ((?x1136 (ite $x665 182 181)))
 (let (($x750 (>= ?x2663 ?x1136)))
 (let ((?x758 (ite $x665 213 212)))
 (let (($x570 (>= ?x2663 ?x758)))
 (let ((?x1273 (ite $x570 (+ (- ?x2663 ?x758) 1) (ite $x750 (+ (- ?x2663 ?x1136) 1) ?x1122))))
 (let ((?x405 (ite $x665 244 243)))
 (let (($x2593 (>= ?x2663 ?x405)))
 (let ((?x491 (ite $x665 274 273)))
 (let (($x2626 (>= ?x2663 ?x491)))
 (let ((?x813 (ite $x2626 (+ (- ?x2663 ?x491) 1) (ite $x2593 (+ (- ?x2663 ?x405) 1) ?x1273))))
 (let ((?x3026 (ite $x665 305 304)))
 (let (($x762 (>= ?x2663 ?x3026)))
 (let ((?x784 (ite $x665 335 334)))
 (let (($x803 (>= ?x2663 ?x784)))
 (let ((?x494 (ite $x803 (+ (- ?x2663 ?x784) 1) (ite $x762 (+ (- ?x2663 ?x3026) 1) ?x813))))
 (let (($x940 (= 0 0)))
 (let (($x951 (= (mod (ite $x940 (+ ?x1000 (+ 0 (div ?x721 12))) ?x490) 400) 0)))
 (let (($x3030 (and (distinct (mod (ite $x940 (+ ?x1000 (+ 0 (div ?x721 12))) ?x490) 100) 0) true)))
 (let (($x1174 (= (mod (ite $x940 (+ ?x1000 (+ 0 (div ?x721 12))) ?x490) 4) 0)))
 (let (($x979 (or (and $x1174 $x3030) $x951)))
 (let ((?x888 (ite $x1019 5 (ite $x2076 4 (ite $x2987 3 (ite $x806 2 1))))))
 (let ((?x796 (ite $x2593 9 (ite $x570 8 (ite $x750 7 (ite $x3190 6 ?x888))))))
 (let ((?x825 (ite $x940 ?x906 (ite $x803 12 (ite $x762 11 (ite $x2626 10 ?x796))))))
 (let ((?x740 (ite (= 2 ?x825) (ite $x979 31 31) (ite (= 1 ?x825) (ite $x979 0 0) 0))))
 (let ((?x2974 (ite (= 4 ?x825) (ite $x979 91 90) (ite (= 3 ?x825) (ite $x979 60 59) ?x740))))
 (let ((?x839 (ite (= 6 ?x825) (ite $x979 152 151) (ite (= 5 ?x825) (ite $x979 121 120) ?x2974))))
 (let ((?x1955 (ite (= 8 ?x825) (ite $x979 213 212) (ite (= 7 ?x825) (ite $x979 182 181) ?x839))))
 (let ((?x2723 (ite (= 10 ?x825) (ite $x979 274 273) (ite (= 9 ?x825) (ite $x979 244 243) ?x1955))))
 (let ((?x2684 (ite (= 12 ?x825) (ite $x979 335 334) (ite (= 11 ?x825) (ite $x979 305 304) ?x2723))))
 (let ((?x604 (+ ?x1000 (+ 0 (div ?x721 12)))))
 (let ((?x3631 (ite $x940 ?x604 ?x490)))
 (let ((?x1760 (- ?x3631 1)))
 (let ((?x844 (+ (- (+ (* 365 ?x1760) (div ?x1760 4)) (div ?x1760 100)) (div ?x1760 400))))
 (let ((?x3428 (+ (- (+ (+ ?x844 ?x2684) (- (ite $x940 ?x577 ?x494) 1)) 730179) 15)))
 (= ?x3428 y_days))))))))))))))))))))))))))))))))))))))))))))))))))))))))))))))))))))))))))))))))))))))))))))))))))))))))))))))))))))))))
(assert
 (>= y_days 8492))
(check-sat)
